Geometry = GenFormat {
64 S
Si C
1   1   0.0000000000E+00   0.0000000000E+00   0.0000000000E+00
2   1   2.1708370100E+00   2.1708370100E+00   0.0000000000E+00
3   1   2.1708370100E+00   0.0000000000E+00   2.1708370100E+00
4   1   0.0000000000E+00   2.1708370100E+00   2.1708370100E+00
5   2   1.0854185100E+00   1.0854185100E+00   1.0854185100E+00
6   2   3.2562555200E+00   3.2562555200E+00   1.0854185100E+00
7   2   3.2562555200E+00   1.0854185100E+00   3.2562555200E+00
8   2   1.0854185100E+00   3.2562555200E+00   3.2562555200E+00
9   1   0.0000000000E+00   0.0000000000E+00   4.3416740243E+00
10   1   2.1708370100E+00   2.1708370100E+00   4.3416740243E+00
11   1   2.1708370100E+00   0.0000000000E+00   6.5125110343E+00
12   1   0.0000000000E+00   2.1708370100E+00   6.5125110343E+00
13   2   1.0854185100E+00   1.0854185100E+00   5.4270925343E+00
14   2   3.2562555200E+00   3.2562555200E+00   5.4270925343E+00
15   2   3.2562555200E+00   1.0854185100E+00   7.5979295443E+00
16   2   1.0854185100E+00   3.2562555200E+00   7.5979295443E+00
17   1   0.0000000000E+00   4.3416740243E+00   0.0000000000E+00
18   1   2.1708370100E+00   6.5125110343E+00   0.0000000000E+00
19   1   2.1708370100E+00   4.3416740243E+00   2.1708370100E+00
20   1   0.0000000000E+00   6.5125110343E+00   2.1708370100E+00
21   2   1.0854185100E+00   5.4270925343E+00   1.0854185100E+00
22   2   3.2562555200E+00   7.5979295443E+00   1.0854185100E+00
23   2   3.2562555200E+00   5.4270925343E+00   3.2562555200E+00
24   2   1.0854185100E+00   7.5979295443E+00   3.2562555200E+00
25   1   0.0000000000E+00   4.3416740243E+00   4.3416740243E+00
26   1   2.1708370100E+00   6.5125110343E+00   4.3416740243E+00
27   1   2.1708370100E+00   4.3416740243E+00   6.5125110343E+00
28   1   0.0000000000E+00   6.5125110343E+00   6.5125110343E+00
29   2   1.0854185100E+00   5.4270925343E+00   5.4270925343E+00
30   2   3.2562555200E+00   7.5979295443E+00   5.4270925343E+00
31   2   3.2562555200E+00   5.4270925343E+00   7.5979295443E+00
32   2   1.0854185100E+00   7.5979295443E+00   7.5979295443E+00
33   1   4.3416740243E+00   0.0000000000E+00   0.0000000000E+00
34   1   6.5125110343E+00   2.1708370100E+00   0.0000000000E+00
35   1   6.5125110343E+00   0.0000000000E+00   2.1708370100E+00
36   1   4.3416740243E+00   2.1708370100E+00   2.1708370100E+00
37   2   5.4270925343E+00   1.0854185100E+00   1.0854185100E+00
38   2   7.5979295443E+00   3.2562555200E+00   1.0854185100E+00
39   2   7.5979295443E+00   1.0854185100E+00   3.2562555200E+00
40   2   5.4270925343E+00   3.2562555200E+00   3.2562555200E+00
41   1   4.3416740243E+00   0.0000000000E+00   4.3416740243E+00
42   1   6.5125110343E+00   2.1708370100E+00   4.3416740243E+00
43   1   6.5125110343E+00   0.0000000000E+00   6.5125110343E+00
44   1   4.3416740243E+00   2.1708370100E+00   6.5125110343E+00
45   2   5.4270925343E+00   1.0854185100E+00   5.4270925343E+00
46   2   7.5979295443E+00   3.2562555200E+00   5.4270925343E+00
47   2   7.5979295443E+00   1.0854185100E+00   7.5979295443E+00
48   2   5.4270925343E+00   3.2562555200E+00   7.5979295443E+00
49   1   4.3416740243E+00   4.3416740243E+00   0.0000000000E+00
50   1   6.5125110343E+00   6.5125110343E+00   0.0000000000E+00
51   1   6.5125110343E+00   4.3416740243E+00   2.1708370100E+00
52   1   4.3416740243E+00   6.5125110343E+00   2.1708370100E+00
53   2   5.4270925343E+00   5.4270925343E+00   1.0854185100E+00
54   2   7.5979295443E+00   7.5979295443E+00   1.0854185100E+00
55   2   7.5979295443E+00   5.4270925343E+00   3.2562555200E+00
56   2   5.4270925343E+00   7.5979295443E+00   3.2562555200E+00
57   1   4.3416740243E+00   4.3416740243E+00   4.3416740243E+00
58   1   6.5125110343E+00   6.5125110343E+00   4.3416740243E+00
59   1   6.5125110343E+00   4.3416740243E+00   6.5125110343E+00
60   1   4.3416740243E+00   6.5125110343E+00   6.5125110343E+00
61   2   5.4270925343E+00   5.4270925343E+00   5.4270925343E+00
62   2   7.5979295443E+00   7.5979295443E+00   5.4270925343E+00
63   2   7.5979295443E+00   5.4270925343E+00   7.5979295443E+00
64   2   5.4270925343E+00   7.5979295443E+00   7.5979295443E+00
0.0000000000E+00   0.0000000000E+00   0.0000000000E+00
8.6833480486E+00   0.0000000000E+00   0.0000000000E+00
0.0000000000E+00   8.6833480486E+00   0.0000000000E+00
0.0000000000E+00   0.0000000000E+00   8.6833480486E+00
}
Driver = {}
Hamiltonian = DFTB {
  Scc = Yes
  MaxAngularMomentum = {
    Si = "p"
    C = "p"
  }
  SlaterKosterFiles = Type2FileNames {
    Prefix = "pbc-0-3/"
    Separator = "-"
    Suffix = ".skf"
    LowerCaseTypeName = No
  }
  KPointsAndWeights = SupercellFolding {
4   0   0
0   4   0
0   0   4
0.5 0.5 0.5
  }
  Filling = Fermi {
    Temperature [K] = 40
    IndependentKFilling = No
  }
  PolynomialRepulsive = {}
  ShellResolvedSCC = No
  OldSKInterpolation = No
  ReadInitialCharges = No
  InitialCharges = {}
  SCCTolerance = 1.0000000000000001E-005
  EwaldParameter = 0.0000000000000000
  EwaldTolerance = 1.0000000000000001E-009
  ConvergentSCCOnly = Yes
  HCorrection = None {}
  SpinPolarisation = {}
  ElectricField = {}
  Solver = RelativelyRobust {}
  Charge = 0.0000000000000000
  MaxSCCIterations = 100
  OnSiteCorrection = {}
  Dispersion = {}
  Solvation = {}
  Electrostatics = GammaFunctional {}
  ThirdOrder = No
  ThirdOrderFull = No
  Differentiation = FiniteDiff {
    Delta = 1.2207031250000000E-004
  }
  ForceEvaluation = "Traditional"
  Mixer = Broyden {
    MixingParameter = 0.20000000000000001
    InverseJacobiWeight = 1.0000000000000000E-002
    MinimalWeight = 1.0000000000000000
    MaximalWeight = 100000.00000000000
    WeightFactor = 1.0000000000000000E-002
  }
}
Parallel = {
  Groups = 1
  UseOmpThreads = Yes
  Blacs = BlockSize {
32
  }
}
ParserOptions = {
  ParserVersion = 14
  WriteHSDInput = Yes
  StopAfterParsing = No
  IgnoreUnprocessedNodes = No
}
Reks = None {}
Analysis = {
  ProjectStates = {}
  WriteEigenvectors = No
  WriteBandOut = Yes
  MullikenAnalysis = Yes
  WriteNetCharges = No
  AtomResolvedEnergies = No
  PrintForces = No
}
ExcitedState = {}
Options = {
  WriteDetailedOut = Yes
  WriteAutotestTag = No
  WriteDetailedXML = No
  WriteResultsTag = No
  RestartFrequency = 20
  RandomSeed = 0
  WriteHS = No
  WriteRealHS = No
  MinimiseMemoryUsage = No
  ShowFoldedCoords = No
  TimingVerbosity = 1
  WriteCharges = Yes
  WriteChargesAsText = No
  BinaryAccessTypes = {
 "stream"
  }
}
